(set-logic ALL)
(declare-const k Int)
(declare-fun %b () (_ BitVec k))
(declare-fun %a () (_ BitVec k))
(assert (not (= (xor (bvule %a %b) (not (= %a %b))) (bvuge %a %b))))
(assert true)
(check-sat)